
Gurobi 10.0.2 (win64) logging started Fri Jun 21 03:40:13 2024

Set parameter LogFile to value "log/log_difficulty1_MNL_DESKTOP-S7OVCUR_9_5.txt"
Gurobi Optimizer version 10.0.2 build v10.0.2rc0 (win64)

CPU model: Intel(R) Core(TM) i7-10510U CPU @ 1.80GHz, instruction set [SSE2|AVX|AVX2]
Thread count: 4 physical cores, 8 logical processors, using up to 8 threads

Optimize a model with 2020 rows, 676 columns and 4612 nonzeros
Model fingerprint: 0x46349abd
Variable types: 364 continuous, 312 integer (312 binary)
Coefficient statistics:
  Matrix range     [1e-03, 1e+03]
  Objective range  [1e+02, 6e+02]
  Bounds range     [1e+00, 1e+00]
  RHS range        [1e+00, 1e+00]
Found heuristic solution: objective -0.0000000
Presolve removed 224 rows and 104 columns
Presolve time: 0.03s
Presolved: 1796 rows, 572 columns, 4233 nonzeros
Found heuristic solution: objective 2055.8659949
Variable types: 308 continuous, 264 integer (264 binary)

Root relaxation: objective 1.595786e+04, 420 iterations, 0.00 seconds (0.00 work units)

    Nodes    |    Current Node    |     Objective Bounds      |     Work
 Expl Unexpl |  Obj  Depth IntInf | Incumbent    BestBd   Gap | It/Node Time

     0     0 15957.8579    0  158 2055.86599 15957.8579   676%     -    0s
H    0     0                    10827.237713 15957.8579  47.4%     -    0s
H    0     0                    11942.403640 15957.8579  33.6%     -    0s
H    0     0                    14658.592616 15227.4061  3.88%     -    0s
     0     0 15227.4061    0  175 14658.5926 15227.4061  3.88%     -    0s
     0     0 15192.9507    0  186 14658.5926 15192.9507  3.65%     -    0s
     0     0 15192.9507    0  185 14658.5926 15192.9507  3.65%     -    0s
H    0     0                    14682.629286 14981.6531  2.04%     -    0s
     0     0 14981.6531    0  165 14682.6293 14981.6531  2.04%     -    0s
     0     0 14951.7261    0  178 14682.6293 14951.7261  1.83%     -    0s
H    0     0                    14701.754399 14947.2156  1.67%     -    0s
     0     0 14947.2156    0  173 14701.7544 14947.2156  1.67%     -    0s
     0     0 14947.1022    0  168 14701.7544 14947.1022  1.67%     -    0s
H    0     0                    14795.919343 14947.1022  1.02%     -    0s
H    0     0                    14858.657004 14947.1022  0.60%     -    0s
H    0     0                    14874.422280 14947.1022  0.49%     -    0s
     0     0 14874.4223    0  185 14874.4223 14874.4223  0.00%     -    0s

Cutting planes:
  Gomory: 34
  Implied bound: 16
  MIR: 43
  Flow cover: 118
  RLT: 89
  Relax-and-lift: 16
  BQP: 11

Explored 1 nodes (1824 simplex iterations) in 0.33 seconds (0.12 work units)
Thread count was 8 (of 8 available processors)

Solution count 10: 14874.4 14858.7 14795.9 ... -0

Optimal solution found (tolerance 1.00e-04)
Best objective 1.487442227965e+04, best bound 1.487442227965e+04, gap 0.0000%
